c SAT Generator for power-law distributed variable frequencies
c -g u -v 20 -c 420 -k 5 -p 2.750000 -b 3.200000 -f 5uf20-420/5uf20-420-58 -u 1 -U 1 -s 529900385
p cnf 20 420
-1 -2 9 12 -17 0
-3 8 11 17 19 0
-1 2 7 13 -16 0
6 7 10 -18 -20 0
-2 3 -7 10 -17 0
-4 -14 -17 19 -20 0
-2 -6 -12 -14 20 0
-2 3 -11 12 -13 0
-5 -6 -8 -12 20 0
-3 6 10 18 20 0
4 -5 -9 -11 12 0
3 -14 15 -17 18 0
-2 -8 10 -12 17 0
1 5 -12 -17 20 0
8 13 14 15 16 0
-2 -3 -16 -19 20 0
1 -3 -9 -10 -19 0
6 -8 -12 -13 15 0
1 -2 -13 -16 -17 0
10 12 13 -14 17 0
-1 -8 12 -14 -20 0
1 -8 16 17 19 0
-5 -7 -11 -13 14 0
-1 3 -14 15 -19 0
9 -15 16 -18 19 0
-1 7 -13 16 19 0
1 10 -16 -17 -18 0
10 -11 -14 18 -19 0
3 -4 13 -14 -16 0
-4 6 -7 8 9 0
-4 5 -10 -15 -17 0
-1 2 6 12 -20 0
-2 -7 9 -15 19 0
2 -10 17 -18 20 0
-2 3 -9 -15 18 0
-4 9 -10 -16 -19 0
-7 -10 16 -18 19 0
2 -4 14 -15 -16 0
-2 -4 -6 -15 -17 0
6 9 -13 -15 -19 0
-4 7 -10 11 20 0
-2 5 6 -10 -19 0
-2 -3 6 -14 -15 0
4 6 -10 14 -19 0
2 -5 -8 -17 -19 0
5 10 11 12 17 0
1 14 17 18 -19 0
8 -14 16 -17 19 0
-3 13 14 17 -20 0
3 -5 -8 9 12 0
1 7 16 17 -18 0
1 2 -7 8 -11 0
-3 -6 -7 -15 18 0
-1 -2 -3 9 11 0
3 -4 9 -12 -16 0
-2 -8 -9 -11 -19 0
-5 -7 14 15 20 0
1 -5 -9 17 -19 0
2 5 9 12 17 0
-1 4 9 -11 -14 0
-7 10 -17 18 -19 0
-6 7 -9 -17 -18 0
1 -3 8 12 14 0
-6 10 -11 -15 -20 0
-7 -10 14 -16 20 0
2 -3 6 -19 -20 0
-2 -4 11 14 16 0
7 13 -15 16 17 0
-5 6 -9 18 -20 0
-5 8 -9 -11 16 0
-6 7 -9 10 -18 0
4 -5 6 -14 16 0
6 8 14 19 20 0
3 8 -13 16 18 0
-7 9 -11 -12 13 0
-2 7 -10 -13 -14 0
4 9 11 17 -20 0
1 3 -5 -16 -20 0
3 4 -5 8 -18 0
4 -5 7 11 -20 0
-3 5 -7 10 19 0
1 3 8 12 -20 0
4 -7 8 13 15 0
2 3 4 15 19 0
-2 -3 -7 18 -20 0
1 -12 14 -18 -19 0
5 -8 11 -12 -13 0
5 -10 12 -16 -20 0
-1 -4 11 -16 19 0
-4 14 -17 -18 20 0
-1 5 15 -18 20 0
2 -7 -8 -14 19 0
6 9 -12 16 19 0
2 -5 8 9 -10 0
-11 12 -14 16 20 0
1 -4 13 -18 19 0
-4 -7 9 -15 19 0
3 4 11 12 16 0
1 5 6 13 17 0
1 2 3 -5 15 0
8 9 -11 14 -19 0
-3 -7 12 -14 20 0
3 8 -9 14 -20 0
-2 5 -9 -11 14 0
7 -10 11 13 18 0
-1 -4 6 -17 -18 0
2 -4 -10 12 16 0
3 -10 14 15 -20 0
5 -7 -13 15 19 0
-3 6 -12 13 -20 0
1 10 -11 16 -17 0
2 -3 -4 9 13 0
-10 12 14 -16 17 0
-5 -8 10 12 -17 0
-5 7 9 -13 16 0
1 3 6 -8 18 0
-3 -5 -6 -10 14 0
-2 -3 -13 18 -19 0
-1 -2 3 7 10 0
-9 10 11 -13 -18 0
-1 2 -12 13 14 0
-3 -6 9 13 16 0
7 11 -16 -18 19 0
1 3 -7 18 -19 0
4 -15 16 17 -19 0
1 3 -10 -19 -20 0
-1 11 13 -16 20 0
-2 13 15 -16 -20 0
-4 8 -9 -13 -17 0
-6 -9 14 19 20 0
3 5 -6 -7 -11 0
1 -10 -11 15 -18 0
3 -4 -6 10 -17 0
-3 5 -10 -15 20 0
-3 5 -7 10 -13 0
-4 -10 -12 -16 -18 0
-1 -10 -12 14 -15 0
3 5 -15 16 18 0
-1 -5 -6 -10 -15 0
-3 -7 11 13 17 0
-4 5 -10 -14 20 0
-6 7 8 9 20 0
1 3 -5 -15 16 0
-3 -4 -16 19 20 0
-6 10 -12 15 19 0
2 5 9 -10 18 0
-5 6 10 -13 -14 0
5 -7 10 -13 19 0
-6 -12 -13 16 -18 0
1 2 4 11 -12 0
10 12 -14 16 -19 0
-6 -11 13 -15 18 0
-11 -15 18 -19 -20 0
4 -10 11 -14 15 0
-1 -2 -14 18 -20 0
-3 -6 12 17 -18 0
4 -5 -11 -15 -17 0
-7 -10 11 -18 20 0
2 3 16 -17 -18 0
3 8 11 14 16 0
-6 8 -11 17 18 0
-1 8 13 14 15 0
-2 10 -12 -13 19 0
-1 -3 -4 12 15 0
-1 -7 -10 -13 17 0
-9 13 14 18 20 0
5 8 10 11 -12 0
3 -4 12 15 20 0
-2 -6 -16 17 19 0
-4 8 9 -18 19 0
-3 -7 -8 -12 15 0
7 -9 11 -15 -20 0
2 3 -11 -15 -16 0
10 -11 12 -13 -17 0
2 3 10 15 -16 0
1 -4 10 -17 19 0
1 4 7 -17 -19 0
3 -7 11 16 20 0
-1 4 7 16 -20 0
11 12 -14 16 20 0
1 -5 7 11 -19 0
-2 5 10 -11 17 0
-4 -8 -12 -14 -20 0
2 3 5 -17 -20 0
2 4 9 -11 20 0
3 11 -18 19 20 0
-6 -10 12 -15 16 0
-1 -4 5 -6 -12 0
-5 -7 -9 12 -14 0
-2 -5 10 -16 18 0
-2 -3 9 -11 16 0
-2 -5 -12 15 -20 0
-6 7 12 14 15 0
3 11 12 -16 -17 0
-1 2 -4 -6 -12 0
-2 -10 11 15 -19 0
8 11 -13 -14 -20 0
6 13 -16 18 20 0
1 -3 8 -12 17 0
-1 4 -5 19 20 0
4 8 9 -10 14 0
-3 -10 12 -17 18 0
-5 9 -10 11 14 0
9 10 11 17 -19 0
-2 4 -9 -11 -13 0
3 -7 8 -10 -19 0
1 2 -4 15 19 0
8 9 11 -16 -19 0
9 -13 15 19 -20 0
-1 6 -7 13 -14 0
3 -5 9 -10 -15 0
1 -11 -12 -17 -20 0
2 -7 14 16 19 0
-2 -5 -10 16 17 0
1 3 9 -17 18 0
1 -10 12 13 -18 0
-12 -13 15 -17 -18 0
-3 6 7 19 -20 0
6 -8 -13 -15 20 0
8 -9 -15 -16 17 0
-11 13 -15 16 17 0
-1 5 -6 -9 -11 0
-2 4 -10 -13 -15 0
-2 8 10 15 20 0
1 -6 -14 -16 -18 0
-1 5 11 -14 16 0
-1 -6 10 16 -18 0
12 13 -14 17 -18 0
1 12 14 -15 18 0
-1 5 -6 -9 -12 0
7 9 -10 13 -19 0
3 -10 -15 16 20 0
-2 -10 11 13 16 0
1 -2 8 -13 -18 0
-1 -7 9 15 -17 0
2 -11 13 17 -20 0
-3 4 15 17 -19 0
1 3 -4 8 17 0
-5 14 15 -17 18 0
-5 8 -10 -11 -15 0
-2 -3 12 13 -17 0
5 -9 17 18 20 0
6 13 -16 -19 20 0
-5 -7 -9 16 17 0
-4 -8 9 11 12 0
5 -6 8 18 -20 0
-1 8 11 -12 18 0
-3 4 8 15 -19 0
1 4 -6 15 -17 0
2 -6 9 11 18 0
5 -7 -12 -15 20 0
6 -7 -8 -11 -12 0
-6 -7 -11 -15 19 0
2 -6 11 13 -16 0
-6 -7 -12 -16 -19 0
2 -3 -9 11 -12 0
5 -8 -9 -13 19 0
6 -10 -11 18 19 0
-3 -4 -14 -16 -17 0
1 -5 14 18 19 0
4 7 8 -12 16 0
-5 6 12 -14 18 0
7 -9 13 -14 -20 0
-3 4 9 12 20 0
7 -9 10 -15 16 0
-3 -7 -14 -18 -20 0
2 -4 12 -14 -15 0
3 -4 6 7 13 0
-4 6 7 -13 -14 0
-3 10 -11 19 -20 0
-5 7 9 -10 -15 0
-10 11 14 -16 -19 0
-1 3 4 7 19 0
-1 4 -8 14 -17 0
2 -7 8 11 13 0
-4 10 11 13 16 0
1 -13 -14 17 20 0
-6 11 12 -16 20 0
-2 -5 9 16 19 0
4 -7 16 17 -19 0
1 -2 -6 -15 -18 0
9 12 -16 17 -18 0
-11 13 14 -17 -18 0
-3 -8 -10 -12 16 0
-2 -5 -9 -15 -17 0
5 6 7 -11 -12 0
1 -4 7 -9 14 0
1 7 17 -18 -20 0
1 -7 -11 -12 -15 0
-2 -3 4 -5 -7 0
-2 -5 8 -17 20 0
6 -7 -8 -9 -18 0
2 -8 14 16 17 0
-1 2 9 -13 15 0
4 -9 11 13 19 0
5 8 -14 -18 -19 0
-1 -4 -5 12 -15 0
4 6 7 -8 -13 0
1 -4 -5 7 -9 0
-2 4 9 -14 -19 0
-2 -7 -15 17 -20 0
1 4 9 14 17 0
-10 13 16 -18 -20 0
2 -6 -9 13 -16 0
-6 -7 8 10 15 0
-1 2 -3 -6 7 0
9 -12 -13 -15 -20 0
1 3 -7 14 15 0
-8 -13 14 16 -18 0
1 -4 -5 -7 17 0
7 -8 -12 13 16 0
-1 3 6 8 -14 0
-3 6 -18 -19 -20 0
2 -4 6 -8 -12 0
-12 -14 17 -18 -19 0
6 14 15 16 -19 0
-7 10 12 -17 20 0
4 5 12 -13 20 0
2 6 9 10 20 0
-9 -11 -14 -18 -20 0
-5 -7 -10 -13 19 0
-1 -4 -6 -10 -18 0
-6 -8 -13 -18 -20 0
10 13 14 15 20 0
1 3 4 -9 20 0
2 -5 10 -14 -20 0
2 -5 8 -10 14 0
3 -4 -11 18 -19 0
-1 -6 9 -12 17 0
-1 2 4 9 -14 0
6 10 11 19 -20 0
6 7 10 -16 -19 0
4 -5 7 -8 -10 0
-5 -6 8 10 13 0
1 9 11 -12 -16 0
2 -4 11 -17 -20 0
8 -10 15 -17 19 0
2 -7 18 -19 20 0
-4 5 -7 -11 -20 0
-2 -5 -8 -13 19 0
3 -8 12 -13 18 0
5 -8 13 -14 -17 0
-1 2 4 16 19 0
2 -7 9 11 17 0
-3 10 -16 -17 19 0
13 -14 15 17 18 0
-3 6 -9 14 -17 0
1 3 5 -14 19 0
2 -4 15 -16 19 0
-2 5 9 -16 18 0
-3 -5 7 12 -14 0
-2 -7 -10 -11 18 0
-1 3 11 13 -17 0
6 9 15 -17 -18 0
-2 7 8 12 -20 0
3 4 -6 -8 11 0
-3 10 14 16 -18 0
2 -7 10 11 -18 0
-4 -12 13 -15 -17 0
-1 -7 14 19 20 0
3 -8 -9 15 -17 0
-1 -10 -13 14 17 0
-5 -7 9 16 -18 0
3 -5 -6 -14 -15 0
-3 -7 11 16 -18 0
-11 -13 -15 -16 18 0
-1 2 -14 -15 17 0
5 11 13 15 19 0
-2 5 -6 -8 -19 0
-9 -12 -14 -18 -20 0
-1 -4 -12 -14 17 0
-1 -3 6 16 -18 0
4 -5 6 -12 -14 0
12 15 17 18 -19 0
-1 -9 10 -14 15 0
-9 -11 13 15 17 0
-3 -6 -10 -13 14 0
1 2 -13 14 -15 0
-1 -2 3 13 14 0
-2 -5 7 9 -18 0
-6 8 -10 16 19 0
6 8 14 -15 19 0
1 3 -5 -10 11 0
1 -3 -10 -11 13 0
-7 -10 -12 13 16 0
5 -10 -12 15 17 0
6 7 -10 12 14 0
-13 -15 16 17 -18 0
-3 -12 -18 -19 -20 0
4 6 11 -14 16 0
4 -6 -11 -14 17 0
1 -3 -9 10 11 0
-3 -5 9 -13 19 0
-2 -10 -17 18 -19 0
3 5 -13 14 -15 0
-3 6 -8 15 17 0
2 10 -11 -16 -18 0
-5 -8 16 18 20 0
3 4 -9 -12 16 0
2 6 -7 8 -19 0
-2 -6 11 12 18 0
1 -3 -14 19 -20 0
-4 6 -7 -8 -19 0
-3 -9 -11 -12 14 0
-2 6 13 -19 -20 0
5 -8 12 13 19 0
10 13 -14 -17 -20 0
-4 8 -9 -12 -15 0
9 13 -14 -18 -19 0
4 -9 -10 -11 13 0
5 10 12 13 18 0
1 2 -3 -4 13 0
1 -3 7 11 -17 0
2 -3 -5 9 18 0
-1 -4 5 13 -18 0
-13 -16 -17 -18 20 0
2 -6 8 -9 14 0
2 5 9 -15 -18 0
-4 11 12 -15 -16 0
6 -8 -10 -11 -16 0
